c instance by G2
c solution = 0101000000
c Known solution cost is 932 
p cnf 10 20
w 301 392 637 540 827 614 926 812 569 296
-3 8 -2 0
-5 -2 -4 0
5 -9 7 0
-4 -10 6 0
5 1 -8 0
-1 6 -4 0
-2 7 -5 0
10 -5 -6 0
-10 6 -4 0
-8 -1 -2 0
8 9 -6 0
7 -1 8 0
5 7 4 0
-7 6 -2 0
-6 2 -1 0
1 -10 9 0
9 3 -6 0
-5 -10 2 0
8 1 2 0
-10 6 2 0
